(set-info :smt-lib-version 2.7)
(set-logic QF_SNIA)
(set-info :source  | 
Generated by: Johannes Bauer
Generated on: 2026-06-21
Generator: mgm A12 Test Data Generator
Application: ELSTER
Target solver: Z3, CVC5
Script is based on the ELSTER form: capital gains tax registration (A / KapEStInvStG)
Characteristic of the form: easy.
In this script, all terms of the form (* x1 x2 x3 ...) are in the form (* x1 c2 c3 ...),
all terms of the form (div x y) are in the form (div x c) and the symbol mod is exclusively used in the form (mod x c),
where x, y, and x1, x2, x3 ... are free constants and c, c2, c3 ... are terms in the form n or (-n) for some numeral n.
The script starts with the base constraints, which define a valid data set for the corresponding form. After the first (push 1), control constraints follow.
The goal of the control constraints in this script is to fill up a data set with values, after the characteristics of the high test coverage were placed.
number variables: 29, number constraints: 75
"https://www.elster.de/eportal/start?locale=en_US"
"https://www.mgm-tp.com/q12-tdg.html"
"https://a12.ai/public-sector"
|)
(set-info :license "https://creativecommons.org/licenses/by/4.0/")
(set-info :category "industrial")
(set-info :major-phase |variable declarations|)
(declare-fun S1-S () String)
(declare-fun I2-d () Int)
(declare-fun I3-y () Int)
(declare-fun I3-m () Int)
(declare-fun I3-d () Int)
(declare-fun I4 () Int)
(declare-fun I5-d () Int)
(declare-fun I6-y () Int)
(declare-fun I6-m () Int)
(declare-fun I6-d () Int)
(declare-fun I7-d () Int)
(declare-fun I8-y () Int)
(declare-fun I8-m () Int)
(declare-fun I8-d () Int)
(declare-fun S9-S () String)
(declare-fun I10-m () Int)
(declare-fun I10-d () Int)
(declare-fun I11-m () Int)
(declare-fun I11-d () Int)
(declare-fun I12 () Int)
(declare-fun B13-F () Bool)
(declare-fun I13 () Int)
(declare-fun I14 () Int)
(declare-fun I15 () Int)
(declare-fun B16-F () Bool)
(declare-fun I17 () Int)
(declare-fun B18-F () Bool)
(declare-fun B19-F () Bool)
(declare-fun B20-F () Bool)
(set-info :major-phase |base constraints|)
(set-info :base-constraint-type ||)
(assert (= 0 (+ I4 I12)))
(assert (= 1 (+ I13 3497834)))
(assert (and (<= I3-y 2025) (or (distinct I3-y 2025) (<= I3-m 12)) (or (distinct I3-y 2025) (distinct I3-m 12) (<= I3-d I2-d))))
(assert (< (ite (and (>= (str.to_int S1-S) 1) (<= (str.to_int S1-S) 9999)) (+ (- I3-y (str.to_int S1-S)) (ite (or (< (str.to_int S1-S) I3-y) (and (= (str.to_int S1-S) I3-y) (< 5 I3-m)) (and (= (str.to_int S1-S) I3-y) (= 5 I3-m) (< 1 I3-d)) (and (= (str.to_int S1-S) I3-y) (= 5 I3-m) (= 1 I3-d))) (ite (or (< 5 I3-m) (and (= 5 I3-m) (<= 1 I3-d))) 0 (- 1)) (ite (or (> 5 I3-m) (and (= 5 I3-m) (>= 1 I3-d))) 0 1))) 0) 1))
(assert (>= 2025 (str.to_int (str.substr S1-S 0 4))))
(assert (<= (str.to_int (str.substr S1-S 0 4)) 2025))
(assert (distinct I4 0))
(assert (distinct I4 0))
(assert (distinct I4 0))
(assert (<= (* I4 100) 15000000000085))
(assert (<= (ite (>= (- 3497820 (div (* I4 55) 10)) 0) (- 3497820 (div (* I4 55) 10)) (- (- 3497820 (div (* I4 55) 10)))) 100))
(assert (>= 2026 (str.to_int (str.substr S9-S 0 4))))
(assert (= 2025 (str.to_int (str.substr S9-S 0 4))))
(assert (<= I10-m 12))
(assert (<= (str.to_int (str.substr S9-S 0 4)) 2025))
(assert (and (or (>= (str.to_int (str.substr S9-S 0 4)) 2025) (distinct (str.to_int (str.substr S9-S 0 4)) 2024)) (>= (str.to_int (str.substr S9-S 0 4)) 2025) (distinct (str.to_int (str.substr S9-S 0 4)) 2024)))
(assert (>= I10-m 8))
(assert (<= (* I12 100) 100))
(assert (<= I11-m 12))
(assert (and (<= I6-y 2025) (or (distinct I6-y 2025) (<= I6-m 12)) (or (distinct I6-y 2025) (distinct I6-m 12) (<= I6-d I5-d))))
(assert (<= 31 I5-d))
(assert (and (<= I8-y 2025) (or (distinct I8-y 2025) (<= I8-m 12)) (or (distinct I8-y 2025) (distinct I8-m 12) (<= I8-d I7-d))))
(assert (<= 31 I7-d))
(assert (= 0 (+ I17 (- 117379442530))))
(set-info :base-constraint-type |constraints defining hierarchy (group is filled, if a child is filled)|)
(assert (= B18-F (or B19-F B20-F)))
(set-info :base-constraint-type |domainconstraints number-fields|)
(assert (= I14 0))
(assert (= I15 0))
(assert (and (<= I4 999999999999) (>= I4 (- 999999999999))))
(assert (and (<= I12 999999999999) (>= I12 (- 999999999999))))
(assert (ite B13-F (and (<= I13 99999999999999) (>= I13 (- 99999999999999))) (= I13 0)))
(assert (ite B16-F true false))
(assert (and (<= I17 99999999999999) (>= I17 (- 9999999999999))))
(set-info :base-constraint-type |domainconstraints date-fields|)
(assert (and (> I3-y 1900) (< I3-y 2100) (> I3-m 0) (<= I3-m 12) (> I3-d 0) (<= I3-d (ite (or (= I3-m 0) (= I3-m 1) (= I3-m 3) (= I3-m 5) (= I3-m 7) (= I3-m 8) (= I3-m 10) (= I3-m 12)) 31 (ite (or (= I3-m 4) (= I3-m 6) (= I3-m 9) (= I3-m 11)) 30 (ite (= (mod I3-y 4) 0) 29 28))))))
(assert (and (> I2-d 0) (<= I2-d 31)))
(assert (and (> I10-m 0) (<= I10-m 12) (> I10-d 0) (<= I10-d (ite (or (= I10-m 0) (= I10-m 1) (= I10-m 3) (= I10-m 5) (= I10-m 7) (= I10-m 8) (= I10-m 10) (= I10-m 12)) 31 (ite (or (= I10-m 4) (= I10-m 6) (= I10-m 9) (= I10-m 11)) 30 28)))))
(assert (and (> I11-m 0) (<= I11-m 12) (> I11-d 0) (<= I11-d (ite (or (= I11-m 0) (= I11-m 1) (= I11-m 3) (= I11-m 5) (= I11-m 7) (= I11-m 8) (= I11-m 10) (= I11-m 12)) 31 (ite (or (= I11-m 4) (= I11-m 6) (= I11-m 9) (= I11-m 11)) 30 28)))))
(assert (and (> I6-y 1900) (< I6-y 2100) (> I6-m 0) (<= I6-m 12) (> I6-d 0) (<= I6-d (ite (or (= I6-m 0) (= I6-m 1) (= I6-m 3) (= I6-m 5) (= I6-m 7) (= I6-m 8) (= I6-m 10) (= I6-m 12)) 31 (ite (or (= I6-m 4) (= I6-m 6) (= I6-m 9) (= I6-m 11)) 30 (ite (= (mod I6-y 4) 0) 29 28))))))
(assert (and (> I5-d 0) (<= I5-d 31)))
(assert (and (> I8-y 1900) (< I8-y 2100) (> I8-m 0) (<= I8-m 12) (> I8-d 0) (<= I8-d (ite (or (= I8-m 0) (= I8-m 1) (= I8-m 3) (= I8-m 5) (= I8-m 7) (= I8-m 8) (= I8-m 10) (= I8-m 12)) 31 (ite (or (= I8-m 4) (= I8-m 6) (= I8-m 9) (= I8-m 11)) 30 (ite (= (mod I8-y 4) 0) 29 28))))))
(assert (and (> I7-d 0) (<= I7-d 31)))
(set-info :base-constraint-type |constraints for date-strategy|)
(assert (and (> (str.to_int S1-S) 1900) (< (str.to_int S1-S) 2100)))
(assert (and (> (str.to_int S1-S) 1900) (< (str.to_int S1-S) 2100)))
(set-info :base-constraint-type |domainconstraints string fields|)
(assert (and (str.in_re S1-S (re.+ (re.range "0" "9"))) (>= (str.len S1-S) 4) (<= (str.len S1-S) 4)))
(assert (and (str.in_re S9-S (re.+ (re.range "0" "9"))) (>= (str.len S9-S) 4) (<= (str.len S9-S) 4)))
(set-info :base-constraint-type |constraints from validation-rules|)
(assert (not (and (or B20-F B19-F) (not (and B20-F B19-F)))))
(assert (not (distinct 0 (+ I4 I12))))
(assert (not (distinct 1 (+ I13 3497834))))
(assert (not (or (> I3-y 2025) (and (= I3-y 2025) (> I3-m 12)) (and (= I3-y 2025) (= I3-m 12) (> I3-d I2-d)))))
(assert (not (>= (ite (and (>= (str.to_int S1-S) 1) (<= (str.to_int S1-S) 9999)) (+ (- I3-y (str.to_int S1-S)) (ite (or (< (str.to_int S1-S) I3-y) (and (= (str.to_int S1-S) I3-y) (< 5 I3-m)) (and (= (str.to_int S1-S) I3-y) (= 5 I3-m) (< 1 I3-d)) (and (= (str.to_int S1-S) I3-y) (= 5 I3-m) (= 1 I3-d))) (ite (or (< 5 I3-m) (and (= 5 I3-m) (<= 1 I3-d))) 0 (- 1)) (ite (or (> 5 I3-m) (and (= 5 I3-m) (>= 1 I3-d))) 0 1))) 0) 1)))
(assert (not (< 2025 (str.to_int (str.substr S1-S 0 4)))))
(assert (not (> (str.to_int (str.substr S1-S 0 4)) 2025)))
(assert (not (= I4 0)))
(assert (not (> (* I4 100) 15000000000085)))
(assert (not (> (ite (>= (- 3497820 (div (* I4 55) 10)) 0) (- 3497820 (div (* I4 55) 10)) (- (- 3497820 (div (* I4 55) 10)))) 100)))
(assert (not (< 2026 (str.to_int (str.substr S9-S 0 4)))))
(assert (not (distinct 2025 (str.to_int (str.substr S9-S 0 4)))))
(assert (not (> I10-m 12)))
(assert (not (> (str.to_int (str.substr S9-S 0 4)) 2025)))
(assert (not (or (and (< (str.to_int (str.substr S9-S 0 4)) 2025) (= (str.to_int (str.substr S9-S 0 4)) 2024)) (and (< (str.to_int (str.substr S9-S 0 4)) 2025) (distinct (str.to_int (str.substr S9-S 0 4)) 2024)))))
(assert (not (< I10-m 8)))
(assert (not (and B13-F (> (ite (>= (- I13 (div (* I12 55) 10)) 0) (- I13 (div (* I12 55) 10)) (- (- I13 (div (* I12 55) 10)))) 100))))
(assert (not (> (* I12 100) 100)))
(assert (not (> I11-m 12)))
(assert (not (or (> I6-y 2025) (and (= I6-y 2025) (> I6-m 12)) (and (= I6-y 2025) (= I6-m 12) (> I6-d I5-d)))))
(assert (not (> 31 I5-d)))
(assert (not (or (> I8-y 2025) (and (= I8-y 2025) (> I8-m 12)) (and (= I8-y 2025) (= I8-m 12) (> I8-d I7-d)))))
(assert (not (> 31 I7-d)))
(assert (not (distinct 0 (+ I17 (- 117379442530)))))
(set-info :major-phase |control constraints|)
(push 1)
(assert B20-F)
(set-info :status sat)
(check-sat)
(push 1)
(assert B19-F)
(set-info :status sat)
(check-sat)
(push 1)
(assert B16-F)
(set-info :status sat)
(check-sat)
(push 1)
(assert B13-F)
(set-info :status sat)
(check-sat)
(exit)

